
Gurobi 9.0.0 (linux64, gurobi_cl) logging started Sun Feb  9 16:32:33 2020

Using license file /share/pkg/gurobi/900/linux64/gurobi.lic
Set parameter ServerPassword
Set parameter TokenServer to value 10.192.16.15
Set parameter LogFile to value gurobi.log
